DATASET = "thpack2";
INSTANCE = "044";

WIDTH = 233;
HEIGHT = 220;
LENGTH = 587;

NO_OF_SHAPES = 5;
size = [|
  114,67,25 |
  92,79,25 |
  89,87,36 |
  95,71,36 |
  90,83,43 |
|];

verticality = [|
  0,0,1 |
  0,0,1 |
  0,0,1 |
  0,1,1 |
  0,1,1 |
|];

box_count = [
  31,
  33,
  26,
  23,
  16,
];
